lines 1109 triples 13612

Starting CP-SAT solver v9.15.6755
Parameters: max_time_in_seconds: 300 log_search_progress: true num_search_workers: 8 randomize_search: false

Initial satisfaction model '': (model_fingerprint: 0x9a48b7b62d31a361)
#Variables: 162 (161 primary variables)
  - 162 Booleans in [0,1]
#kBoolOr: 13'612 (#literals: 40'836)
#kLinear3: 694
#kLinearN: 416 (#terms: 2'406)

Starting presolve at 0.01s
  2.74e-03s  0.00e+00d  [DetectDominanceRelations] 
  1.25e-02s  0.00e+00d  [PresolveToFixPoint] #num_loops=2 #num_dual_strengthening=1 
  8.19e-05s  0.00e+00d  [ExtractEncodingFromLinear] 
  1.34e-04s  0.00e+00d  [DetectDuplicateColumns] 
  4.81e-04s  0.00e+00d  [DetectDuplicateConstraints] #duplicates=694 
[Symmetry] Graph for symmetry has 14'352 nodes and 43'404 arcs.
[Symmetry] Symmetry computation done. time: 0.0182212 dtime: 0.0181734
[Symmetry] #generators: 2, average support size: 153
[Symmetry] 45 orbits on 162 variables with sizes: 4,4,4,4,4,4,4,4,4,4,...
[SAT presolve] num removable Booleans: 0 / 162
[SAT presolve] num trivial clauses: 0
[SAT presolve] [0s] clauses:13'612 literals:40'836 vars:162 one_side_vars:162 simple_definition:0 singleton_clauses:0
[SAT presolve] [0.00276177s] clauses:13'612 literals:40'836 vars:162 one_side_vars:162 simple_definition:0 singleton_clauses:0
[SAT presolve] [0.00281696s] clauses:13'612 literals:40'836 vars:162 one_side_vars:162 simple_definition:0 singleton_clauses:0
  2.99e-04s  0.00e+00d  [DetectDuplicateConstraintsWithDifferentEnforcements] 
  7.18e-03s  4.59e-03d  [Probe] #probed=324 
  9.68e-05s  0.00e+00d  [MaxClique] 
  2.31e-03s  0.00e+00d  [DetectDominanceRelations] 
  6.99e-03s  0.00e+00d  [PresolveToFixPoint] #num_loops=1 #num_dual_strengthening=1 
  4.92e-04s  0.00e+00d  [ProcessAtMostOneAndLinear] 
  3.43e-04s  0.00e+00d  [DetectDuplicateConstraints] 
  2.88e-04s  0.00e+00d  [DetectDuplicateConstraintsWithDifferentEnforcements] 
  5.71e-03s  8.27e-05d  [DetectDominatedLinearConstraints] #relevant_constraints=416 #num_inclusions=415 
  1.71e-04s  0.00e+00d  [DetectDifferentVariables] 
  4.46e-03s  2.21e-03d  [ProcessSetPPC] #relevant_constraints=14'028 
  1.31e-03s  2.07e-04d  [TransformClausesToExactlyOne] #num_clauses=13'612 #num_checked=13'612 
  1.07e-04s  0.00e+00d  [DetectEncodedComplexDomains] 
  2.00e-04s  0.00e+00d  [FindAlmostIdenticalLinearConstraints] 
  2.47e-06s  0.00e+00d  [FindBigAtMostOneAndLinearOverlap] 
  8.34e-04s  6.23e-04d  [FindBigVerticalLinearOverlap] 
  1.78e-04s  1.64e-04d  [FindBigHorizontalLinearOverlap] #linears=194 
  4.42e-03s  2.04e-04d  [MergeClauses] #num_collisions=8'664 #num_merges=8'664 #num_saved_literals=17'328 
  2.01e-03s  0.00e+00d  [DetectDominanceRelations] 
  4.57e-03s  0.00e+00d  [PresolveToFixPoint] #num_loops=1 #num_dual_strengthening=1 
  2.03e-03s  0.00e+00d  [DetectDominanceRelations] 
  4.68e-03s  0.00e+00d  [PresolveToFixPoint] #num_loops=1 #num_dual_strengthening=1 
  1.28e-04s  0.00e+00d  [DetectDuplicateColumns] 
  1.70e-04s  0.00e+00d  [DetectDuplicateConstraints] 
[Symmetry] Graph for symmetry has 5'688 nodes and 26'076 arcs.
[Symmetry] Symmetry computation done. time: 0.000999172 dtime: 0.00206471
[SAT presolve] num removable Booleans: 0 / 162
[SAT presolve] num trivial clauses: 0
[SAT presolve] [0s] clauses:13'612 literals:40'836 vars:162 one_side_vars:162 simple_definition:0 singleton_clauses:0
[SAT presolve] [0.0032555s] clauses:13'612 literals:40'836 vars:162 one_side_vars:162 simple_definition:0 singleton_clauses:0
[SAT presolve] [0.00331635s] clauses:13'612 literals:40'836 vars:162 one_side_vars:162 simple_definition:0 singleton_clauses:0
  9.57e-04s  0.00e+00d  [DetectDuplicateConstraintsWithDifferentEnforcements] 
  7.17e-03s  4.59e-03d  [Probe] #probed=324 
  1.35e-04s  0.00e+00d  [MaxClique] 
  2.15e-03s  0.00e+00d  [DetectDominanceRelations] 
  5.75e-03s  0.00e+00d  [PresolveToFixPoint] #num_loops=1 #num_dual_strengthening=1 
  5.50e-04s  0.00e+00d  [ProcessAtMostOneAndLinear] 
  4.04e-04s  0.00e+00d  [DetectDuplicateConstraints] 
  3.24e-04s  0.00e+00d  [DetectDuplicateConstraintsWithDifferentEnforcements] 
  5.34e-03s  8.27e-05d  [DetectDominatedLinearConstraints] #relevant_constraints=416 #num_inclusions=415 
  2.49e-04s  0.00e+00d  [DetectDifferentVariables] 
  4.28e-03s  2.21e-03d  [ProcessSetPPC] #relevant_constraints=14'028 
  9.03e-04s  2.07e-04d  [TransformClausesToExactlyOne] #num_clauses=13'612 #num_checked=13'612 
  1.57e-04s  0.00e+00d  [DetectEncodedComplexDomains] 
  1.27e-04s  0.00e+00d  [FindAlmostIdenticalLinearConstraints] 
  1.67e-06s  0.00e+00d  [FindBigAtMostOneAndLinearOverlap] 
  8.26e-04s  6.23e-04d  [FindBigVerticalLinearOverlap] 
  2.28e-04s  1.64e-04d  [FindBigHorizontalLinearOverlap] #linears=194 
  2.41e-03s  2.04e-04d  [MergeClauses] #num_collisions=8'664 #num_merges=8'664 #num_saved_literals=17'328 
  2.18e-03s  0.00e+00d  [DetectDominanceRelations] 
  4.81e-03s  0.00e+00d  [PresolveToFixPoint] #num_loops=1 #num_dual_strengthening=1 
  1.21e-04s  0.00e+00d  [MergeNoOverlap] 
  1.25e-04s  0.00e+00d  [MergeNoOverlap2D] 

Presolve summary:
  - 0 affine relations were detected.
  - rule 'TODO dual: only one blocking constraint?' was applied 972 times.
  - rule 'TODO linear inclusion: superset is equality' was applied 830 times.
  - rule 'duplicate: removed constraint' was applied 694 times.
  - rule 'linear: negative clause' was applied 694 times.
  - rule 'presolve: 0 unused variables removed.' was applied 1 time.
  - rule 'presolve: iteration' was applied 2 times.

Presolved satisfaction model '': (model_fingerprint: 0x9ba07967490fc86)
#Variables: 162 (161 primary variables)
  - 162 Booleans in [0,1]
#kBoolAndClauses: 2'840 (#enforced: 2'840 #multi: 2'840) (#literals: 17'184)
#kBoolOr: 2'108 (#literals: 6'324)
#kLinearN: 416 (#terms: 2'406)
[Symmetry] Graph for symmetry has 5'688 nodes and 26'076 arcs.
[Symmetry] Symmetry computation done. time: 0.00111719 dtime: 0.00206471

Preloading model.
#Model   0.17s var:162/162 constraints:5364/5364

Starting search at 0.17s with 8 workers.
6 full problem subsolvers: [default_lp, max_lp, no_lp, probing, quick_restart, quick_restart_no_lp]
2 first solution subsolvers: [fj, fs_random_no_lp]
2 interleaved subsolvers: [feasibility_pump, rins/rens]
2 helper subsolvers: [neighborhood_helper, synchronization_agent]

#Model   0.45s var:161/162 constraints:5300/5364
#Model   0.53s var:160/162 constraints:5237/5364

Task timing                      n [     min,      max]      avg      dev     time         n [     min,      max]      avg      dev    dtime
           'default_lp':         1 [   5.00m,    5.00m]    5.00m   0.00ns    5.00m         2 [  3.04ms,    3.69m]    1.84m    1.84m    3.69m
     'feasibility_pump':      1487 [ 19.21us,  97.87ms] 636.01us   4.49ms 945.75ms      1485 [ 43.18us,   7.03ms]  47.88us 181.22us  71.10ms
                   'fj':      1072 [ 38.86ms, 511.40ms] 138.71ms  51.70ms    2.48m      1072 [100.00ms, 100.30ms] 100.02ms  30.50us    1.79m
      'fs_random_no_lp':         1 [   5.01m,    5.01m]    5.01m   0.00ns    5.01m         2 [  2.94ms,    5.76m]    2.88m    2.88m    5.76m
               'max_lp':         1 [   5.00m,    5.00m]    5.00m   0.00ns    5.00m         2 [252.86ms,    4.12m]    2.06m    2.06m    4.13m
                'no_lp':         1 [   5.00m,    5.00m]    5.00m   0.00ns    5.00m         2 [  2.94ms,    4.27m]    2.14m    2.14m    4.27m
              'probing':         1 [   5.00m,    5.00m]    5.00m   0.00ns    5.00m         2 [  3.04ms,    2.34m]    1.17m    1.17m    2.34m
        'quick_restart':         1 [   5.00m,    5.00m]    5.00m   0.00ns    5.00m         2 [  3.04ms,    3.84m]    1.92m    1.92m    3.84m
  'quick_restart_no_lp':         1 [   5.00m,    5.00m]    5.00m   0.00ns    5.00m         2 [  2.94ms,    5.96m]    2.98m    2.98m    5.96m
            'rins/rens':      1135 [905.43us, 558.93ms] 131.02ms  57.14ms    2.48m      1130 [229.00ns, 100.21ms]  73.35ms  32.67ms    1.38m

Search stats              Bools  Conflicts    Branches  Restarts  BacktrackToRoot  Backtrack  BoolPropag  IntegerPropag
           'default_lp':    162     42'350   2'534'077       297          705'264  1'488'992  12'539'266     15'063'389
      'fs_random_no_lp':    162  4'847'849   5'671'866     3'351          170'599  5'109'358  68'311'494     14'712'155
               'max_lp':    162     48'223   1'915'455       320          522'239  1'120'341   9'428'932     11'326'742
                'no_lp':    162  5'545'523   8'034'807    15'349          144'856  5'767'971  92'058'708     16'659'036
              'probing':    162         50      35'144         0           32'375     32'423       4'568         39'700
        'quick_restart':    162     13'729   3'981'794     1'161        1'091'544  2'251'471  19'022'758     22'997'686
  'quick_restart_no_lp':    162  1'701'816  11'011'730   155'767          339'484  2'207'084  41'449'302     28'387'582

SAT formula               Fixed  Equiv  Total  VarLeft  BinaryClauses  PermanentClauses  TemporaryClauses
           'default_lp':      2      0    162      160            222            13'211             6'674
      'fs_random_no_lp':      2      0    162      160            220            13'512            15'780
               'max_lp':      2      0    162      160            220            13'221            12'860
                'no_lp':      2      0    162      160            212            13'579            12'741
              'probing':      2      0    162      160            222            16'924                16
        'quick_restart':      2      0    162      160            222            13'344             4'897
  'quick_restart_no_lp':      2      0    162      160            222            13'368            13'272

SAT stats                 ClassicMinim  LitRemoved  LitRemovedBinary   LitLearned  LitForgotten   Subsumed
           'default_lp':        29'645     248'155            11'672    1'337'141       572'257     15'904
      'fs_random_no_lp':     3'293'108  71'015'766        12'108'488  549'716'351   509'527'287    435'963
               'max_lp':        35'683     425'946            19'118    2'300'255     1'152'285     10'991
                'no_lp':     4'450'016  63'345'495        11'133'941  654'156'020   480'372'012  1'599'638
              'probing':            23          76                20          627             0         21
        'quick_restart':         9'800     119'333             9'858      350'187        83'457      3'167
  'quick_restart_no_lp':     1'287'874  16'692'514         4'151'473  199'873'096   134'065'660    523'447

Vivification                Clauses  Decisions  LitTrue  Subsumed  LitRemoved  DecisionReused  Conflicts
           'default_lp':  2'450'377  2'446'602        0     2'607      17'839       2'816'709          6
      'fs_random_no_lp':    560'311    601'685        0     2'536      18'009         634'760          3
               'max_lp':  1'820'142  1'791'630        0     2'527      17'328       2'097'071         14
                'no_lp':    429'752    469'258        0     2'384      16'574         485'476          2
              'probing':        128        886        0        71         669               0         12
        'quick_restart':  3'779'715  3'900'684        0     2'581      19'003       4'351'268         34
  'quick_restart_no_lp':    615'044    659'807        0     2'908      20'241         696'774          4

Clause deletion           at_true  l_and_not(l)  to_binary  sub_conflict  sub_extra  sub_decisions  sub_eager  sub_vivify  sub_probing  sub_inpro  blocked  eliminated  forgotten    promoted  conflicts
           'default_lp':      474             0          0        15'458        343          1'668        446       2'607          474        895        0           0     16'975     107'540     42'350
      'fs_random_no_lp':      480             0          0       421'025     77'165            860     14'938       2'536          733     16'641        0           0  4'300'753  10'415'005  4'847'849
               'max_lp':      480             0          0        10'570        236            766        421       2'527          635        430        0           0     22'983     116'792     48'223
                'no_lp':      480             0          0     1'540'233     45'386          6'491     59'405       2'384          605      1'653        0           0  3'879'232  11'319'040  5'545'523
              'probing':        0             0          0            19          0              3          2          71            0          0        0           0          0          42         50
        'quick_restart':      473             0          0         3'043         67            161        124       2'581          422      1'655        0           0      3'091      27'348     13'729
  'quick_restart_no_lp':      650             0          0       493'636     15'085          3'939     29'811       2'908          877        879        0           0  1'142'422   3'239'688  1'701'816

Lp stats            Component  Iterations  AddedCuts  OPTIMAL  DUAL_F.  DUAL_U.
     'default_lp':          1   3'940'457      9'628   55'944        1   39'479
         'max_lp':          1   2'474'658     10'163   15'437   65'575   45'790
        'probing':          1     294'057     71'623   22'394        0       47
  'quick_restart':          1   1'889'108     27'603   38'192        1   12'995

Lp dimension          Final dimension of first component
     'default_lp':   194 rows, 162 columns, 2796 entries
         'max_lp':  422 rows, 162 columns, 10064 entries
        'probing':  699 rows, 162 columns, 58763 entries
  'quick_restart':   276 rows, 162 columns, 8061 entries

Lp debug            CutPropag  CutEqPropag  Adjust  Overflow        Bad  BadScaling
     'default_lp':          0            9  39'473         0    257'516           0
         'max_lp':          0            0  45'763         0    251'055           0
        'probing':          0           42      47         0  1'862'905           0
  'quick_restart':          0           36  12'994         0    674'510           0

Lp pool             Constraints  Updates  Simplif  Merged  Shortened  Split  Strengthened      Cuts/Call
     'default_lp':       10'044      167        0       0         18      0             0    9'628/9'671
         'max_lp':       23'191    1'633        0       0         11      0             1  10'163/10'241
        'probing':       10'039    1'770        0       0         13      0             1  71'623/71'769
  'quick_restart':       10'019      986        0       0         69      0             0  27'603/27'724

Lp Cut           default_lp  quick_restart  probing  max_lp
         CG_FF:          14             56       20       8
          CG_K:           -              -        2       -
          CG_R:          13             46       12       7
        Clique:           -              -        -      11
      MIR_1_FF:           -              -        6       -
     MIR_1_RLT:           -              -        -     213
      MIR_2_FF:           -              -       10       -
      MIR_3_FF:           -              -        6       -
       MIR_3_K:           -              -        2       -
      MIR_4_FF:           -              -        1       -
      MIR_5_FF:           -              -        1       -
  ZERO_HALF_FF:          17             42       51      14
   ZERO_HALF_R:       9'584         27'459   71'512   9'910

LNS stats       Improv/Calls  Closed  Difficulty  TimeLimit
  'rins/rens':     1135/1135     50%    2.55e-01       0.10

LS stats                                    Batches  Restarts/Perturbs   LinMoves  GenMoves  CompoundMoves  Bactracks  WeightUpdates  ScoreComputed
                             'fj_restart':       91                 25    525'820         0              0          0      4'111'490         14'562
                    'fj_restart_compound':       88                 26          0   310'093         16'872    146'548          1'883      4'633'852
                'fj_restart_compound_obj':       63                 17          0   221'289         11'565    104'842          1'320      3'302'639
            'fj_restart_compound_perturb':       40                 16          0   140'756          8'417     66'148            703      2'143'884
        'fj_restart_compound_perturb_obj':      129                 29          0   447'911         22'571    212'630          3'320      6'756'086
                       'fj_restart_decay':       81                 17  1'250'951         0              0          0        130'508         58'240
              'fj_restart_decay_compound':       27                 16          0    91'975          8'167     41'860            204      1'582'617
          'fj_restart_decay_compound_obj':       62                 21          0   218'190         27'034     95'504            549      3'464'731
      'fj_restart_decay_compound_perturb':       82                 29          0   290'089         34'646    127'643            696      4'601'205
  'fj_restart_decay_compound_perturb_obj':      108                 22          0   386'389         65'292    160'490          1'067      5'935'539
                   'fj_restart_decay_obj':       60                 17    927'275         0              0          0         96'589         42'880
               'fj_restart_decay_perturb':       58                 16    896'710         0              0          0         93'926         41'600
           'fj_restart_decay_perturb_obj':       28                 18    431'860         0              0          0         45'239         19'200
                         'fj_restart_obj':       75                 22    438'086         0              0          0      3'200'141         12'000
                     'fj_restart_perturb':       33                 16    213'407         0              0          0      1'318'733          5'280
                 'fj_restart_perturb_obj':       47                 19    352'992         0              0          0      1'484'097          7'520

Solution repositories    Added  Queried  Synchro
    'alternative_path':      0        0        0
      'best_solutions':      0        0        0
   'fj solution hints':    318        0      318
        'lp solutions':  1'014    1'135      929
                'pump':      0        0

Improving bounds shared    Num  Sym
            'default_lp':    1    0
         'quick_restart':    1    0

Clauses shared            #Exported  #Imported  #BinaryRead  #BinaryTotal
           'default_lp':        120      3'303          113           113
      'fs_random_no_lp':        394      2'963          112           113
               'max_lp':         69      3'298          112           113
                'no_lp':        165      3'055          108           113
              'probing':         12      3'377          113           113
        'quick_restart':        865      2'585          113           113
  'quick_restart_no_lp':      1'907      1'444          113           113

LRAT_status: NA
CpSolverResponse summary:
status: UNKNOWN
objective: NA
best_bound: NA
integers: 162
booleans: 162
conflicts: 5545523
branches: 8034807
propagations: 92058708
integer_propagations: 16659036
restarts: 15349
lp_iterations: 0
walltime: 300.807
usertime: 300.807
deterministic_time: 1989.4
gap_integral: 0

status UNKNOWN time 300.80708405400003 conflicts 5545523 branches 8034807
